data/lp_files/pEFS/105_5.lp
\ Model foo
\ LP format - for model browsing. Use MPS format to capture full model detail.
Minimize
  z
Subject To
 allocateEach[1]: x[1,1] + x[2,1] + x[3,1] + x[4,1] + x[5,1] + x[6,1] = 1
 allocateEach[2]: x[1,2] + x[2,2] + x[3,2] + x[4,2] + x[5,2] + x[6,2] = 1
 allocateEach[3]: x[1,3] + x[2,3] + x[3,3] + x[4,3] + x[5,3] + x[6,3] = 1
 allocateEach[4]: x[1,4] + x[2,4] + x[3,4] + x[4,4] + x[5,4] + x[6,4] = 1
 allocateEach[5]: x[1,5] + x[2,5] + x[3,5] + x[4,5] + x[5,5] + x[6,5] = 1
 allocateAllCash: cashProportion[1] + cashProportion[2] + cashProportion[3]
   + cashProportion[4] + cashProportion[5] + cashProportion[6] = 1
 findWorstP[1,2]: z + 0.1630877955966295 cashProportion[1]
   - 0.1630877955966295 cashProportion[2] + 0.0135362870345202 x[1,1]
   + 0.2696384887197608 x[1,2] + 0.0674639847784724 x[1,3]
   + 0.1944550149497146 x[1,4] + 0.2918184289209024 x[1,5]
   - 0.0135362870345202 x[2,1] - 0.2696384887197608 x[2,2]
   - 0.0674639847784724 x[2,3] - 0.1944550149497146 x[2,4]
   - 0.2918184289209024 x[2,5] >= 0
 findWorstP[1,3]: z + 0.1630877955966295 cashProportion[1]
   - 0.1630877955966295 cashProportion[3] + 0.0135362870345202 x[1,1]
   + 0.2696384887197608 x[1,2] + 0.0674639847784724 x[1,3]
   + 0.1944550149497146 x[1,4] + 0.2918184289209024 x[1,5]
   - 0.0135362870345202 x[3,1] - 0.2696384887197608 x[3,2]
   - 0.0674639847784724 x[3,3] - 0.1944550149497146 x[3,4]
   - 0.2918184289209024 x[3,5] >= 0
 findWorstP[1,4]: z + 0.1630877955966295 cashProportion[1]
   - 0.1630877955966295 cashProportion[4] + 0.0135362870345202 x[1,1]
   + 0.2696384887197608 x[1,2] + 0.0674639847784724 x[1,3]
   + 0.1944550149497146 x[1,4] + 0.2918184289209024 x[1,5]
   - 0.0135362870345202 x[4,1] - 0.2696384887197608 x[4,2]
   - 0.0674639847784724 x[4,3] - 0.1944550149497146 x[4,4]
   - 0.2918184289209024 x[4,5] >= 0
 findWorstP[1,5]: z + 0.1630877955966295 cashProportion[1]
   - 0.1630877955966295 cashProportion[5] + 0.0135362870345202 x[1,1]
   + 0.2696384887197608 x[1,2] + 0.0674639847784724 x[1,3]
   + 0.1944550149497146 x[1,4] + 0.2918184289209024 x[1,5]
   - 0.0135362870345202 x[5,1] - 0.2696384887197608 x[5,2]
   - 0.0674639847784724 x[5,3] - 0.1944550149497146 x[5,4]
   - 0.2918184289209024 x[5,5] >= 0
 findWorstP[1,6]: z + 0.1630877955966295 cashProportion[1]
   - 0.1630877955966295 cashProportion[6] + 0.0135362870345202 x[1,1]
   + 0.2696384887197608 x[1,2] + 0.0674639847784724 x[1,3]
   + 0.1944550149497146 x[1,4] + 0.2918184289209024 x[1,5]
   - 0.0135362870345202 x[6,1] - 0.2696384887197608 x[6,2]
   - 0.0674639847784724 x[6,3] - 0.1944550149497146 x[6,4]
   - 0.2918184289209024 x[6,5] >= 0
 findWorstP[2,1]: z - 0.1089997456672601 cashProportion[1]
   + 0.1089997456672601 cashProportion[2] - 0.0845474693892381 x[1,1]
   - 0.3103586091632453 x[1,2] - 0.024452276278022 x[1,3]
   - 0.2431420993351016 x[1,4] - 0.228499800167133 x[1,5]
   + 0.0845474693892381 x[2,1] + 0.3103586091632453 x[2,2]
   + 0.024452276278022 x[2,3] + 0.2431420993351016 x[2,4]
   + 0.228499800167133 x[2,5] >= 0
 findWorstP[2,3]: z + 0.1089997456672601 cashProportion[2]
   - 0.1089997456672601 cashProportion[3] + 0.0845474693892381 x[2,1]
   + 0.3103586091632453 x[2,2] + 0.024452276278022 x[2,3]
   + 0.2431420993351016 x[2,4] + 0.228499800167133 x[2,5]
   - 0.0845474693892381 x[3,1] - 0.3103586091632453 x[3,2]
   - 0.024452276278022 x[3,3] - 0.2431420993351016 x[3,4]
   - 0.228499800167133 x[3,5] >= 0
 findWorstP[2,4]: z + 0.1089997456672601 cashProportion[2]
   - 0.1089997456672601 cashProportion[4] + 0.0845474693892381 x[2,1]
   + 0.3103586091632453 x[2,2] + 0.024452276278022 x[2,3]
   + 0.2431420993351016 x[2,4] + 0.228499800167133 x[2,5]
   - 0.0845474693892381 x[4,1] - 0.3103586091632453 x[4,2]
   - 0.024452276278022 x[4,3] - 0.2431420993351016 x[4,4]
   - 0.228499800167133 x[4,5] >= 0
 findWorstP[2,5]: z + 0.1089997456672601 cashProportion[2]
   - 0.1089997456672601 cashProportion[5] + 0.0845474693892381 x[2,1]
   + 0.3103586091632453 x[2,2] + 0.024452276278022 x[2,3]
   + 0.2431420993351016 x[2,4] + 0.228499800167133 x[2,5]
   - 0.0845474693892381 x[5,1] - 0.3103586091632453 x[5,2]
   - 0.024452276278022 x[5,3] - 0.2431420993351016 x[5,4]
   - 0.228499800167133 x[5,5] >= 0
 findWorstP[2,6]: z + 0.1089997456672601 cashProportion[2]
   - 0.1089997456672601 cashProportion[6] + 0.0845474693892381 x[2,1]
   + 0.3103586091632453 x[2,2] + 0.024452276278022 x[2,3]
   + 0.2431420993351016 x[2,4] + 0.228499800167133 x[2,5]
   - 0.0845474693892381 x[6,1] - 0.3103586091632453 x[6,2]
   - 0.024452276278022 x[6,3] - 0.2431420993351016 x[6,4]
   - 0.228499800167133 x[6,5] >= 0
 findWorstP[3,1]: z - 0.1032488986784141 cashProportion[1]
   + 0.1032488986784141 cashProportion[3] - 0.1314702643171806 x[1,1]
   - 0.1990638766519824 x[1,2] - 0.2435985682819383 x[1,3]
   - 0.2821104074889867 x[1,4] - 0.0405079845814978 x[1,5]
   + 0.1314702643171806 x[3,1] + 0.1990638766519824 x[3,2]
   + 0.2435985682819383 x[3,3] + 0.2821104074889867 x[3,4]
   + 0.0405079845814978 x[3,5] >= 0
 findWorstP[3,2]: z - 0.1032488986784141 cashProportion[2]
   + 0.1032488986784141 cashProportion[3] - 0.1314702643171806 x[2,1]
   - 0.1990638766519824 x[2,2] - 0.2435985682819383 x[2,3]
   - 0.2821104074889867 x[2,4] - 0.0405079845814978 x[2,5]
   + 0.1314702643171806 x[3,1] + 0.1990638766519824 x[3,2]
   + 0.2435985682819383 x[3,3] + 0.2821104074889867 x[3,4]
   + 0.0405079845814978 x[3,5] >= 0
 findWorstP[3,4]: z + 0.1032488986784141 cashProportion[3]
   - 0.1032488986784141 cashProportion[4] + 0.1314702643171806 x[3,1]
   + 0.1990638766519824 x[3,2] + 0.2435985682819383 x[3,3]
   + 0.2821104074889867 x[3,4] + 0.0405079845814978 x[3,5]
   - 0.1314702643171806 x[4,1] - 0.1990638766519824 x[4,2]
   - 0.2435985682819383 x[4,3] - 0.2821104074889867 x[4,4]
   - 0.0405079845814978 x[4,5] >= 0
 findWorstP[3,5]: z + 0.1032488986784141 cashProportion[3]
   - 0.1032488986784141 cashProportion[5] + 0.1314702643171806 x[3,1]
   + 0.1990638766519824 x[3,2] + 0.2435985682819383 x[3,3]
   + 0.2821104074889867 x[3,4] + 0.0405079845814978 x[3,5]
   - 0.1314702643171806 x[5,1] - 0.1990638766519824 x[5,2]
   - 0.2435985682819383 x[5,3] - 0.2821104074889867 x[5,4]
   - 0.0405079845814978 x[5,5] >= 0
 findWorstP[3,6]: z + 0.1032488986784141 cashProportion[3]
   - 0.1032488986784141 cashProportion[6] + 0.1314702643171806 x[3,1]
   + 0.1990638766519824 x[3,2] + 0.2435985682819383 x[3,3]
   + 0.2821104074889867 x[3,4] + 0.0405079845814978 x[3,5]
   - 0.1314702643171806 x[6,1] - 0.1990638766519824 x[6,2]
   - 0.2435985682819383 x[6,3] - 0.2821104074889867 x[6,4]
   - 0.0405079845814978 x[6,5] >= 0
 findWorstP[4,1]: z - 0.1401279835583166 cashProportion[1]
   + 0.1401279835583166 cashProportion[4] - 0.0502592367695829 x[1,1]
   - 0.1523658274557429 x[1,2] - 0.1104208510439535 x[1,3]
   - 0.1215376710729133 x[1,4] - 0.4252884300994909 x[1,5]
   + 0.0502592367695829 x[4,1] + 0.1523658274557429 x[4,2]
   + 0.1104208510439535 x[4,3] + 0.1215376710729133 x[4,4]
   + 0.4252884300994909 x[4,5] >= 0
 findWorstP[4,2]: z - 0.1401279835583166 cashProportion[2]
   + 0.1401279835583166 cashProportion[4] - 0.0502592367695829 x[2,1]
   - 0.1523658274557429 x[2,2] - 0.1104208510439535 x[2,3]
   - 0.1215376710729133 x[2,4] - 0.4252884300994909 x[2,5]
   + 0.0502592367695829 x[4,1] + 0.1523658274557429 x[4,2]
   + 0.1104208510439535 x[4,3] + 0.1215376710729133 x[4,4]
   + 0.4252884300994909 x[4,5] >= 0
 findWorstP[4,3]: z - 0.1401279835583166 cashProportion[3]
   + 0.1401279835583166 cashProportion[4] - 0.0502592367695829 x[3,1]
   - 0.1523658274557429 x[3,2] - 0.1104208510439535 x[3,3]
   - 0.1215376710729133 x[3,4] - 0.4252884300994909 x[3,5]
   + 0.0502592367695829 x[4,1] + 0.1523658274557429 x[4,2]
   + 0.1104208510439535 x[4,3] + 0.1215376710729133 x[4,4]
   + 0.4252884300994909 x[4,5] >= 0
 findWorstP[4,5]: z + 0.1401279835583166 cashProportion[4]
   - 0.1401279835583166 cashProportion[5] + 0.0502592367695829 x[4,1]
   + 0.1523658274557429 x[4,2] + 0.1104208510439535 x[4,3]
   + 0.1215376710729133 x[4,4] + 0.4252884300994909 x[4,5]
   - 0.0502592367695829 x[5,1] - 0.1523658274557429 x[5,2]
   - 0.1104208510439535 x[5,3] - 0.1215376710729133 x[5,4]
   - 0.4252884300994909 x[5,5] >= 0
 findWorstP[4,6]: z + 0.1401279835583166 cashProportion[4]
   - 0.1401279835583166 cashProportion[6] + 0.0502592367695829 x[4,1]
   + 0.1523658274557429 x[4,2] + 0.1104208510439535 x[4,3]
   + 0.1215376710729133 x[4,4] + 0.4252884300994909 x[4,5]
   - 0.0502592367695829 x[6,1] - 0.1523658274557429 x[6,2]
   - 0.1104208510439535 x[6,3] - 0.1215376710729133 x[6,4]
   - 0.4252884300994909 x[6,5] >= 0
 findWorstP[5,1]: z - 0.0763261671543061 cashProportion[1]
   + 0.0763261671543061 cashProportion[5] - 0.2055209260908281 x[1,1]
   - 0.1774074545223254 x[1,2] - 0.200992240173006 x[1,3]
   - 0.1607174659712505 x[1,4] - 0.1790357460882839 x[1,5]
   + 0.2055209260908281 x[5,1] + 0.1774074545223254 x[5,2]
   + 0.200992240173006 x[5,3] + 0.1607174659712505 x[5,4]
   + 0.1790357460882839 x[5,5] >= 0
 findWorstP[5,2]: z - 0.0763261671543061 cashProportion[2]
   + 0.0763261671543061 cashProportion[5] - 0.2055209260908281 x[2,1]
   - 0.1774074545223254 x[2,2] - 0.200992240173006 x[2,3]
   - 0.1607174659712505 x[2,4] - 0.1790357460882839 x[2,5]
   + 0.2055209260908281 x[5,1] + 0.1774074545223254 x[5,2]
   + 0.200992240173006 x[5,3] + 0.1607174659712505 x[5,4]
   + 0.1790357460882839 x[5,5] >= 0
 findWorstP[5,3]: z - 0.0763261671543061 cashProportion[3]
   + 0.0763261671543061 cashProportion[5] - 0.2055209260908281 x[3,1]
   - 0.1774074545223254 x[3,2] - 0.200992240173006 x[3,3]
   - 0.1607174659712505 x[3,4] - 0.1790357460882839 x[3,5]
   + 0.2055209260908281 x[5,1] + 0.1774074545223254 x[5,2]
   + 0.200992240173006 x[5,3] + 0.1607174659712505 x[5,4]
   + 0.1790357460882839 x[5,5] >= 0
 findWorstP[5,4]: z - 0.0763261671543061 cashProportion[4]
   + 0.0763261671543061 cashProportion[5] - 0.2055209260908281 x[4,1]
   - 0.1774074545223254 x[4,2] - 0.200992240173006 x[4,3]
   - 0.1607174659712505 x[4,4] - 0.1790357460882839 x[4,5]
   + 0.2055209260908281 x[5,1] + 0.1774074545223254 x[5,2]
   + 0.200992240173006 x[5,3] + 0.1607174659712505 x[5,4]
   + 0.1790357460882839 x[5,5] >= 0
 findWorstP[5,6]: z + 0.0763261671543061 cashProportion[5]
   - 0.0763261671543061 cashProportion[6] + 0.2055209260908281 x[5,1]
   + 0.1774074545223254 x[5,2] + 0.200992240173006 x[5,3]
   + 0.1607174659712505 x[5,4] + 0.1790357460882839 x[5,5]
   - 0.2055209260908281 x[6,1] - 0.1774074545223254 x[6,2]
   - 0.200992240173006 x[6,3] - 0.1607174659712505 x[6,4]
   - 0.1790357460882839 x[6,5] >= 0
 findWorstP[6,1]: z - 0.0897209677901726 cashProportion[1]
   + 0.0897209677901726 cashProportion[6] - 0.1283607979184735 x[1,1]
   - 0.1822830995603673 x[1,2] - 0.1511798307264408 x[1,3]
   - 0.1832102162275324 x[1,4] - 0.2652450877770135 x[1,5]
   + 0.1283607979184735 x[6,1] + 0.1822830995603673 x[6,2]
   + 0.1511798307264408 x[6,3] + 0.1832102162275324 x[6,4]
   + 0.2652450877770135 x[6,5] >= 0
 findWorstP[6,2]: z - 0.0897209677901726 cashProportion[2]
   + 0.0897209677901726 cashProportion[6] - 0.1283607979184735 x[2,1]
   - 0.1822830995603673 x[2,2] - 0.1511798307264408 x[2,3]
   - 0.1832102162275324 x[2,4] - 0.2652450877770135 x[2,5]
   + 0.1283607979184735 x[6,1] + 0.1822830995603673 x[6,2]
   + 0.1511798307264408 x[6,3] + 0.1832102162275324 x[6,4]
   + 0.2652450877770135 x[6,5] >= 0
 findWorstP[6,3]: z - 0.0897209677901726 cashProportion[3]
   + 0.0897209677901726 cashProportion[6] - 0.1283607979184735 x[3,1]
   - 0.1822830995603673 x[3,2] - 0.1511798307264408 x[3,3]
   - 0.1832102162275324 x[3,4] - 0.2652450877770135 x[3,5]
   + 0.1283607979184735 x[6,1] + 0.1822830995603673 x[6,2]
   + 0.1511798307264408 x[6,3] + 0.1832102162275324 x[6,4]
   + 0.2652450877770135 x[6,5] >= 0
 findWorstP[6,4]: z - 0.0897209677901726 cashProportion[4]
   + 0.0897209677901726 cashProportion[6] - 0.1283607979184735 x[4,1]
   - 0.1822830995603673 x[4,2] - 0.1511798307264408 x[4,3]
   - 0.1832102162275324 x[4,4] - 0.2652450877770135 x[4,5]
   + 0.1283607979184735 x[6,1] + 0.1822830995603673 x[6,2]
   + 0.1511798307264408 x[6,3] + 0.1832102162275324 x[6,4]
   + 0.2652450877770135 x[6,5] >= 0
 findWorstP[6,5]: z - 0.0897209677901726 cashProportion[5]
   + 0.0897209677901726 cashProportion[6] - 0.1283607979184735 x[5,1]
   - 0.1822830995603673 x[5,2] - 0.1511798307264408 x[5,3]
   - 0.1832102162275324 x[5,4] - 0.2652450877770135 x[5,5]
   + 0.1283607979184735 x[6,1] + 0.1822830995603673 x[6,2]
   + 0.1511798307264408 x[6,3] + 0.1832102162275324 x[6,4]
   + 0.2652450877770135 x[6,5] >= 0
Bounds
 z <= 1
 -infinity <= cashProportion[1] <= 1
 -infinity <= cashProportion[2] <= 1
 -infinity <= cashProportion[3] <= 1
 -infinity <= cashProportion[4] <= 1
 -infinity <= cashProportion[5] <= 1
 -infinity <= cashProportion[6] <= 1
Binaries
 x[1,1] x[1,2] x[1,3] x[1,4] x[1,5] x[2,1] x[2,2] x[2,3] x[2,4] x[2,5]
 x[3,1] x[3,2] x[3,3] x[3,4] x[3,5] x[4,1] x[4,2] x[4,3] x[4,4] x[4,5]
 x[5,1] x[5,2] x[5,3] x[5,4] x[5,5] x[6,1] x[6,2] x[6,3] x[6,4] x[6,5]
End
