data/mps_files/pEFS/105_5.mps
NAME foo
ROWS
 N  OBJ
 E  allocateEach[1]
 E  allocateEach[2]
 E  allocateEach[3]
 E  allocateEach[4]
 E  allocateEach[5]
 E  allocateAllCash
 G  findWorstP[1,2]
 G  findWorstP[1,3]
 G  findWorstP[1,4]
 G  findWorstP[1,5]
 G  findWorstP[1,6]
 G  findWorstP[2,1]
 G  findWorstP[2,3]
 G  findWorstP[2,4]
 G  findWorstP[2,5]
 G  findWorstP[2,6]
 G  findWorstP[3,1]
 G  findWorstP[3,2]
 G  findWorstP[3,4]
 G  findWorstP[3,5]
 G  findWorstP[3,6]
 G  findWorstP[4,1]
 G  findWorstP[4,2]
 G  findWorstP[4,3]
 G  findWorstP[4,5]
 G  findWorstP[4,6]
 G  findWorstP[5,1]
 G  findWorstP[5,2]
 G  findWorstP[5,3]
 G  findWorstP[5,4]
 G  findWorstP[5,6]
 G  findWorstP[6,1]
 G  findWorstP[6,2]
 G  findWorstP[6,3]
 G  findWorstP[6,4]
 G  findWorstP[6,5]
COLUMNS
    z         OBJ       1
    z         findWorstP[1,2]  1
    z         findWorstP[1,3]  1
    z         findWorstP[1,4]  1
    z         findWorstP[1,5]  1
    z         findWorstP[1,6]  1
    z         findWorstP[2,1]  1
    z         findWorstP[2,3]  1
    z         findWorstP[2,4]  1
    z         findWorstP[2,5]  1
    z         findWorstP[2,6]  1
    z         findWorstP[3,1]  1
    z         findWorstP[3,2]  1
    z         findWorstP[3,4]  1
    z         findWorstP[3,5]  1
    z         findWorstP[3,6]  1
    z         findWorstP[4,1]  1
    z         findWorstP[4,2]  1
    z         findWorstP[4,3]  1
    z         findWorstP[4,5]  1
    z         findWorstP[4,6]  1
    z         findWorstP[5,1]  1
    z         findWorstP[5,2]  1
    z         findWorstP[5,3]  1
    z         findWorstP[5,4]  1
    z         findWorstP[5,6]  1
    z         findWorstP[6,1]  1
    z         findWorstP[6,2]  1
    z         findWorstP[6,3]  1
    z         findWorstP[6,4]  1
    z         findWorstP[6,5]  1
    cashProportion[1]  allocateAllCash  1
    cashProportion[1]  findWorstP[1,2]  1.6308779559662950e-01
    cashProportion[1]  findWorstP[1,3]  1.6308779559662950e-01
    cashProportion[1]  findWorstP[1,4]  1.6308779559662950e-01
    cashProportion[1]  findWorstP[1,5]  1.6308779559662950e-01
    cashProportion[1]  findWorstP[1,6]  1.6308779559662950e-01
    cashProportion[1]  findWorstP[2,1]  -1.0899974566726012e-01
    cashProportion[1]  findWorstP[3,1]  -1.0324889867841409e-01
    cashProportion[1]  findWorstP[4,1]  -1.4012798355831660e-01
    cashProportion[1]  findWorstP[5,1]  -7.6326167154306068e-02
    cashProportion[1]  findWorstP[6,1]  -8.9720967790172565e-02
    cashProportion[2]  allocateAllCash  1
    cashProportion[2]  findWorstP[1,2]  -1.6308779559662950e-01
    cashProportion[2]  findWorstP[2,1]  1.0899974566726012e-01
    cashProportion[2]  findWorstP[2,3]  1.0899974566726012e-01
    cashProportion[2]  findWorstP[2,4]  1.0899974566726012e-01
    cashProportion[2]  findWorstP[2,5]  1.0899974566726012e-01
    cashProportion[2]  findWorstP[2,6]  1.0899974566726012e-01
    cashProportion[2]  findWorstP[3,2]  -1.0324889867841409e-01
    cashProportion[2]  findWorstP[4,2]  -1.4012798355831660e-01
    cashProportion[2]  findWorstP[5,2]  -7.6326167154306068e-02
    cashProportion[2]  findWorstP[6,2]  -8.9720967790172565e-02
    cashProportion[3]  allocateAllCash  1
    cashProportion[3]  findWorstP[1,3]  -1.6308779559662950e-01
    cashProportion[3]  findWorstP[2,3]  -1.0899974566726012e-01
    cashProportion[3]  findWorstP[3,1]  1.0324889867841409e-01
    cashProportion[3]  findWorstP[3,2]  1.0324889867841409e-01
    cashProportion[3]  findWorstP[3,4]  1.0324889867841409e-01
    cashProportion[3]  findWorstP[3,5]  1.0324889867841409e-01
    cashProportion[3]  findWorstP[3,6]  1.0324889867841409e-01
    cashProportion[3]  findWorstP[4,3]  -1.4012798355831660e-01
    cashProportion[3]  findWorstP[5,3]  -7.6326167154306068e-02
    cashProportion[3]  findWorstP[6,3]  -8.9720967790172565e-02
    cashProportion[4]  allocateAllCash  1
    cashProportion[4]  findWorstP[1,4]  -1.6308779559662950e-01
    cashProportion[4]  findWorstP[2,4]  -1.0899974566726012e-01
    cashProportion[4]  findWorstP[3,4]  -1.0324889867841409e-01
    cashProportion[4]  findWorstP[4,1]  1.4012798355831660e-01
    cashProportion[4]  findWorstP[4,2]  1.4012798355831660e-01
    cashProportion[4]  findWorstP[4,3]  1.4012798355831660e-01
    cashProportion[4]  findWorstP[4,5]  1.4012798355831660e-01
    cashProportion[4]  findWorstP[4,6]  1.4012798355831660e-01
    cashProportion[4]  findWorstP[5,4]  -7.6326167154306068e-02
    cashProportion[4]  findWorstP[6,4]  -8.9720967790172565e-02
    cashProportion[5]  allocateAllCash  1
    cashProportion[5]  findWorstP[1,5]  -1.6308779559662950e-01
    cashProportion[5]  findWorstP[2,5]  -1.0899974566726012e-01
    cashProportion[5]  findWorstP[3,5]  -1.0324889867841409e-01
    cashProportion[5]  findWorstP[4,5]  -1.4012798355831660e-01
    cashProportion[5]  findWorstP[5,1]  7.6326167154306068e-02
    cashProportion[5]  findWorstP[5,2]  7.6326167154306068e-02
    cashProportion[5]  findWorstP[5,3]  7.6326167154306068e-02
    cashProportion[5]  findWorstP[5,4]  7.6326167154306068e-02
    cashProportion[5]  findWorstP[5,6]  7.6326167154306068e-02
    cashProportion[5]  findWorstP[6,5]  -8.9720967790172565e-02
    cashProportion[6]  allocateAllCash  1
    cashProportion[6]  findWorstP[1,6]  -1.6308779559662950e-01
    cashProportion[6]  findWorstP[2,6]  -1.0899974566726012e-01
    cashProportion[6]  findWorstP[3,6]  -1.0324889867841409e-01
    cashProportion[6]  findWorstP[4,6]  -1.4012798355831660e-01
    cashProportion[6]  findWorstP[5,6]  -7.6326167154306068e-02
    cashProportion[6]  findWorstP[6,1]  8.9720967790172565e-02
    cashProportion[6]  findWorstP[6,2]  8.9720967790172565e-02
    cashProportion[6]  findWorstP[6,3]  8.9720967790172565e-02
    cashProportion[6]  findWorstP[6,4]  8.9720967790172565e-02
    cashProportion[6]  findWorstP[6,5]  8.9720967790172565e-02
    MARKER    'MARKER'                 'INTORG'
    x[1,1]    allocateEach[1]  1
    x[1,1]    findWorstP[1,2]  1.3536287034520249e-02
    x[1,1]    findWorstP[1,3]  1.3536287034520249e-02
    x[1,1]    findWorstP[1,4]  1.3536287034520249e-02
    x[1,1]    findWorstP[1,5]  1.3536287034520249e-02
    x[1,1]    findWorstP[1,6]  1.3536287034520249e-02
    x[1,1]    findWorstP[2,1]  -0.0845474693892381
    x[1,1]    findWorstP[3,1]  -1.3147026431718062e-01
    x[1,1]    findWorstP[4,1]  -5.0259236769582889e-02
    x[1,1]    findWorstP[5,1]  -2.0552092609082814e-01
    x[1,1]    findWorstP[6,1]  -1.2836079791847355e-01
    x[1,2]    allocateEach[2]  1
    x[1,2]    findWorstP[1,2]  2.6963848871976082e-01
    x[1,2]    findWorstP[1,3]  2.6963848871976082e-01
    x[1,2]    findWorstP[1,4]  2.6963848871976082e-01
    x[1,2]    findWorstP[1,5]  2.6963848871976082e-01
    x[1,2]    findWorstP[1,6]  2.6963848871976082e-01
    x[1,2]    findWorstP[2,1]  -3.1035860916324531e-01
    x[1,2]    findWorstP[3,1]  -1.9906387665198239e-01
    x[1,2]    findWorstP[4,1]  -1.5236582745574292e-01
    x[1,2]    findWorstP[5,1]  -1.7740745452232543e-01
    x[1,2]    findWorstP[6,1]  -1.8228309956036726e-01
    x[1,3]    allocateEach[3]  1
    x[1,3]    findWorstP[1,2]  6.7463984778472416e-02
    x[1,3]    findWorstP[1,3]  6.7463984778472416e-02
    x[1,3]    findWorstP[1,4]  6.7463984778472416e-02
    x[1,3]    findWorstP[1,5]  6.7463984778472416e-02
    x[1,3]    findWorstP[1,6]  6.7463984778472416e-02
    x[1,3]    findWorstP[2,1]  -2.4452276278022021e-02
    x[1,3]    findWorstP[3,1]  -2.4359856828193832e-01
    x[1,3]    findWorstP[4,1]  -1.1042085104395349e-01
    x[1,3]    findWorstP[5,1]  -2.0099224017300601e-01
    x[1,3]    findWorstP[6,1]  -1.5117983072644076e-01
    x[1,4]    allocateEach[4]  1
    x[1,4]    findWorstP[1,2]  1.9445501494971459e-01
    x[1,4]    findWorstP[1,3]  1.9445501494971459e-01
    x[1,4]    findWorstP[1,4]  1.9445501494971459e-01
    x[1,4]    findWorstP[1,5]  1.9445501494971459e-01
    x[1,4]    findWorstP[1,6]  1.9445501494971459e-01
    x[1,4]    findWorstP[2,1]  -2.4314209933510159e-01
    x[1,4]    findWorstP[3,1]  -2.8211040748898675e-01
    x[1,4]    findWorstP[4,1]  -1.2153767107291327e-01
    x[1,4]    findWorstP[5,1]  -1.6071746597125050e-01
    x[1,4]    findWorstP[6,1]  -1.8321021622753239e-01
    x[1,5]    allocateEach[5]  1
    x[1,5]    findWorstP[1,2]  2.9181842892090243e-01
    x[1,5]    findWorstP[1,3]  2.9181842892090243e-01
    x[1,5]    findWorstP[1,4]  2.9181842892090243e-01
    x[1,5]    findWorstP[1,5]  2.9181842892090243e-01
    x[1,5]    findWorstP[1,6]  2.9181842892090243e-01
    x[1,5]    findWorstP[2,1]  -2.2849980016713298e-01
    x[1,5]    findWorstP[3,1]  -0.0405079845814978
    x[1,5]    findWorstP[4,1]  -4.2528843009949091e-01
    x[1,5]    findWorstP[5,1]  -1.7903574608828393e-01
    x[1,5]    findWorstP[6,1]  -2.6524508777701350e-01
    x[2,1]    allocateEach[1]  1
    x[2,1]    findWorstP[1,2]  -1.3536287034520249e-02
    x[2,1]    findWorstP[2,1]  0.0845474693892381
    x[2,1]    findWorstP[2,3]  0.0845474693892381
    x[2,1]    findWorstP[2,4]  0.0845474693892381
    x[2,1]    findWorstP[2,5]  0.0845474693892381
    x[2,1]    findWorstP[2,6]  0.0845474693892381
    x[2,1]    findWorstP[3,2]  -1.3147026431718062e-01
    x[2,1]    findWorstP[4,2]  -5.0259236769582889e-02
    x[2,1]    findWorstP[5,2]  -2.0552092609082814e-01
    x[2,1]    findWorstP[6,2]  -1.2836079791847355e-01
    x[2,2]    allocateEach[2]  1
    x[2,2]    findWorstP[1,2]  -2.6963848871976082e-01
    x[2,2]    findWorstP[2,1]  3.1035860916324531e-01
    x[2,2]    findWorstP[2,3]  3.1035860916324531e-01
    x[2,2]    findWorstP[2,4]  3.1035860916324531e-01
    x[2,2]    findWorstP[2,5]  3.1035860916324531e-01
    x[2,2]    findWorstP[2,6]  3.1035860916324531e-01
    x[2,2]    findWorstP[3,2]  -1.9906387665198239e-01
    x[2,2]    findWorstP[4,2]  -1.5236582745574292e-01
    x[2,2]    findWorstP[5,2]  -1.7740745452232543e-01
    x[2,2]    findWorstP[6,2]  -1.8228309956036726e-01
    x[2,3]    allocateEach[3]  1
    x[2,3]    findWorstP[1,2]  -6.7463984778472416e-02
    x[2,3]    findWorstP[2,1]  2.4452276278022021e-02
    x[2,3]    findWorstP[2,3]  2.4452276278022021e-02
    x[2,3]    findWorstP[2,4]  2.4452276278022021e-02
    x[2,3]    findWorstP[2,5]  2.4452276278022021e-02
    x[2,3]    findWorstP[2,6]  2.4452276278022021e-02
    x[2,3]    findWorstP[3,2]  -2.4359856828193832e-01
    x[2,3]    findWorstP[4,2]  -1.1042085104395349e-01
    x[2,3]    findWorstP[5,2]  -2.0099224017300601e-01
    x[2,3]    findWorstP[6,2]  -1.5117983072644076e-01
    x[2,4]    allocateEach[4]  1
    x[2,4]    findWorstP[1,2]  -1.9445501494971459e-01
    x[2,4]    findWorstP[2,1]  2.4314209933510159e-01
    x[2,4]    findWorstP[2,3]  2.4314209933510159e-01
    x[2,4]    findWorstP[2,4]  2.4314209933510159e-01
    x[2,4]    findWorstP[2,5]  2.4314209933510159e-01
    x[2,4]    findWorstP[2,6]  2.4314209933510159e-01
    x[2,4]    findWorstP[3,2]  -2.8211040748898675e-01
    x[2,4]    findWorstP[4,2]  -1.2153767107291327e-01
    x[2,4]    findWorstP[5,2]  -1.6071746597125050e-01
    x[2,4]    findWorstP[6,2]  -1.8321021622753239e-01
    x[2,5]    allocateEach[5]  1
    x[2,5]    findWorstP[1,2]  -2.9181842892090243e-01
    x[2,5]    findWorstP[2,1]  2.2849980016713298e-01
    x[2,5]    findWorstP[2,3]  2.2849980016713298e-01
    x[2,5]    findWorstP[2,4]  2.2849980016713298e-01
    x[2,5]    findWorstP[2,5]  2.2849980016713298e-01
    x[2,5]    findWorstP[2,6]  2.2849980016713298e-01
    x[2,5]    findWorstP[3,2]  -0.0405079845814978
    x[2,5]    findWorstP[4,2]  -4.2528843009949091e-01
    x[2,5]    findWorstP[5,2]  -1.7903574608828393e-01
    x[2,5]    findWorstP[6,2]  -2.6524508777701350e-01
    x[3,1]    allocateEach[1]  1
    x[3,1]    findWorstP[1,3]  -1.3536287034520249e-02
    x[3,1]    findWorstP[2,3]  -0.0845474693892381
    x[3,1]    findWorstP[3,1]  1.3147026431718062e-01
    x[3,1]    findWorstP[3,2]  1.3147026431718062e-01
    x[3,1]    findWorstP[3,4]  1.3147026431718062e-01
    x[3,1]    findWorstP[3,5]  1.3147026431718062e-01
    x[3,1]    findWorstP[3,6]  1.3147026431718062e-01
    x[3,1]    findWorstP[4,3]  -5.0259236769582889e-02
    x[3,1]    findWorstP[5,3]  -2.0552092609082814e-01
    x[3,1]    findWorstP[6,3]  -1.2836079791847355e-01
    x[3,2]    allocateEach[2]  1
    x[3,2]    findWorstP[1,3]  -2.6963848871976082e-01
    x[3,2]    findWorstP[2,3]  -3.1035860916324531e-01
    x[3,2]    findWorstP[3,1]  1.9906387665198239e-01
    x[3,2]    findWorstP[3,2]  1.9906387665198239e-01
    x[3,2]    findWorstP[3,4]  1.9906387665198239e-01
    x[3,2]    findWorstP[3,5]  1.9906387665198239e-01
    x[3,2]    findWorstP[3,6]  1.9906387665198239e-01
    x[3,2]    findWorstP[4,3]  -1.5236582745574292e-01
    x[3,2]    findWorstP[5,3]  -1.7740745452232543e-01
    x[3,2]    findWorstP[6,3]  -1.8228309956036726e-01
    x[3,3]    allocateEach[3]  1
    x[3,3]    findWorstP[1,3]  -6.7463984778472416e-02
    x[3,3]    findWorstP[2,3]  -2.4452276278022021e-02
    x[3,3]    findWorstP[3,1]  2.4359856828193832e-01
    x[3,3]    findWorstP[3,2]  2.4359856828193832e-01
    x[3,3]    findWorstP[3,4]  2.4359856828193832e-01
    x[3,3]    findWorstP[3,5]  2.4359856828193832e-01
    x[3,3]    findWorstP[3,6]  2.4359856828193832e-01
    x[3,3]    findWorstP[4,3]  -1.1042085104395349e-01
    x[3,3]    findWorstP[5,3]  -2.0099224017300601e-01
    x[3,3]    findWorstP[6,3]  -1.5117983072644076e-01
    x[3,4]    allocateEach[4]  1
    x[3,4]    findWorstP[1,3]  -1.9445501494971459e-01
    x[3,4]    findWorstP[2,3]  -2.4314209933510159e-01
    x[3,4]    findWorstP[3,1]  2.8211040748898675e-01
    x[3,4]    findWorstP[3,2]  2.8211040748898675e-01
    x[3,4]    findWorstP[3,4]  2.8211040748898675e-01
    x[3,4]    findWorstP[3,5]  2.8211040748898675e-01
    x[3,4]    findWorstP[3,6]  2.8211040748898675e-01
    x[3,4]    findWorstP[4,3]  -1.2153767107291327e-01
    x[3,4]    findWorstP[5,3]  -1.6071746597125050e-01
    x[3,4]    findWorstP[6,3]  -1.8321021622753239e-01
    x[3,5]    allocateEach[5]  1
    x[3,5]    findWorstP[1,3]  -2.9181842892090243e-01
    x[3,5]    findWorstP[2,3]  -2.2849980016713298e-01
    x[3,5]    findWorstP[3,1]  0.0405079845814978
    x[3,5]    findWorstP[3,2]  0.0405079845814978
    x[3,5]    findWorstP[3,4]  0.0405079845814978
    x[3,5]    findWorstP[3,5]  0.0405079845814978
    x[3,5]    findWorstP[3,6]  0.0405079845814978
    x[3,5]    findWorstP[4,3]  -4.2528843009949091e-01
    x[3,5]    findWorstP[5,3]  -1.7903574608828393e-01
    x[3,5]    findWorstP[6,3]  -2.6524508777701350e-01
    x[4,1]    allocateEach[1]  1
    x[4,1]    findWorstP[1,4]  -1.3536287034520249e-02
    x[4,1]    findWorstP[2,4]  -0.0845474693892381
    x[4,1]    findWorstP[3,4]  -1.3147026431718062e-01
    x[4,1]    findWorstP[4,1]  5.0259236769582889e-02
    x[4,1]    findWorstP[4,2]  5.0259236769582889e-02
    x[4,1]    findWorstP[4,3]  5.0259236769582889e-02
    x[4,1]    findWorstP[4,5]  5.0259236769582889e-02
    x[4,1]    findWorstP[4,6]  5.0259236769582889e-02
    x[4,1]    findWorstP[5,4]  -2.0552092609082814e-01
    x[4,1]    findWorstP[6,4]  -1.2836079791847355e-01
    x[4,2]    allocateEach[2]  1
    x[4,2]    findWorstP[1,4]  -2.6963848871976082e-01
    x[4,2]    findWorstP[2,4]  -3.1035860916324531e-01
    x[4,2]    findWorstP[3,4]  -1.9906387665198239e-01
    x[4,2]    findWorstP[4,1]  1.5236582745574292e-01
    x[4,2]    findWorstP[4,2]  1.5236582745574292e-01
    x[4,2]    findWorstP[4,3]  1.5236582745574292e-01
    x[4,2]    findWorstP[4,5]  1.5236582745574292e-01
    x[4,2]    findWorstP[4,6]  1.5236582745574292e-01
    x[4,2]    findWorstP[5,4]  -1.7740745452232543e-01
    x[4,2]    findWorstP[6,4]  -1.8228309956036726e-01
    x[4,3]    allocateEach[3]  1
    x[4,3]    findWorstP[1,4]  -6.7463984778472416e-02
    x[4,3]    findWorstP[2,4]  -2.4452276278022021e-02
    x[4,3]    findWorstP[3,4]  -2.4359856828193832e-01
    x[4,3]    findWorstP[4,1]  1.1042085104395349e-01
    x[4,3]    findWorstP[4,2]  1.1042085104395349e-01
    x[4,3]    findWorstP[4,3]  1.1042085104395349e-01
    x[4,3]    findWorstP[4,5]  1.1042085104395349e-01
    x[4,3]    findWorstP[4,6]  1.1042085104395349e-01
    x[4,3]    findWorstP[5,4]  -2.0099224017300601e-01
    x[4,3]    findWorstP[6,4]  -1.5117983072644076e-01
    x[4,4]    allocateEach[4]  1
    x[4,4]    findWorstP[1,4]  -1.9445501494971459e-01
    x[4,4]    findWorstP[2,4]  -2.4314209933510159e-01
    x[4,4]    findWorstP[3,4]  -2.8211040748898675e-01
    x[4,4]    findWorstP[4,1]  1.2153767107291327e-01
    x[4,4]    findWorstP[4,2]  1.2153767107291327e-01
    x[4,4]    findWorstP[4,3]  1.2153767107291327e-01
    x[4,4]    findWorstP[4,5]  1.2153767107291327e-01
    x[4,4]    findWorstP[4,6]  1.2153767107291327e-01
    x[4,4]    findWorstP[5,4]  -1.6071746597125050e-01
    x[4,4]    findWorstP[6,4]  -1.8321021622753239e-01
    x[4,5]    allocateEach[5]  1
    x[4,5]    findWorstP[1,4]  -2.9181842892090243e-01
    x[4,5]    findWorstP[2,4]  -2.2849980016713298e-01
    x[4,5]    findWorstP[3,4]  -0.0405079845814978
    x[4,5]    findWorstP[4,1]  4.2528843009949091e-01
    x[4,5]    findWorstP[4,2]  4.2528843009949091e-01
    x[4,5]    findWorstP[4,3]  4.2528843009949091e-01
    x[4,5]    findWorstP[4,5]  4.2528843009949091e-01
    x[4,5]    findWorstP[4,6]  4.2528843009949091e-01
    x[4,5]    findWorstP[5,4]  -1.7903574608828393e-01
    x[4,5]    findWorstP[6,4]  -2.6524508777701350e-01
    x[5,1]    allocateEach[1]  1
    x[5,1]    findWorstP[1,5]  -1.3536287034520249e-02
    x[5,1]    findWorstP[2,5]  -0.0845474693892381
    x[5,1]    findWorstP[3,5]  -1.3147026431718062e-01
    x[5,1]    findWorstP[4,5]  -5.0259236769582889e-02
    x[5,1]    findWorstP[5,1]  2.0552092609082814e-01
    x[5,1]    findWorstP[5,2]  2.0552092609082814e-01
    x[5,1]    findWorstP[5,3]  2.0552092609082814e-01
    x[5,1]    findWorstP[5,4]  2.0552092609082814e-01
    x[5,1]    findWorstP[5,6]  2.0552092609082814e-01
    x[5,1]    findWorstP[6,5]  -1.2836079791847355e-01
    x[5,2]    allocateEach[2]  1
    x[5,2]    findWorstP[1,5]  -2.6963848871976082e-01
    x[5,2]    findWorstP[2,5]  -3.1035860916324531e-01
    x[5,2]    findWorstP[3,5]  -1.9906387665198239e-01
    x[5,2]    findWorstP[4,5]  -1.5236582745574292e-01
    x[5,2]    findWorstP[5,1]  1.7740745452232543e-01
    x[5,2]    findWorstP[5,2]  1.7740745452232543e-01
    x[5,2]    findWorstP[5,3]  1.7740745452232543e-01
    x[5,2]    findWorstP[5,4]  1.7740745452232543e-01
    x[5,2]    findWorstP[5,6]  1.7740745452232543e-01
    x[5,2]    findWorstP[6,5]  -1.8228309956036726e-01
    x[5,3]    allocateEach[3]  1
    x[5,3]    findWorstP[1,5]  -6.7463984778472416e-02
    x[5,3]    findWorstP[2,5]  -2.4452276278022021e-02
    x[5,3]    findWorstP[3,5]  -2.4359856828193832e-01
    x[5,3]    findWorstP[4,5]  -1.1042085104395349e-01
    x[5,3]    findWorstP[5,1]  2.0099224017300601e-01
    x[5,3]    findWorstP[5,2]  2.0099224017300601e-01
    x[5,3]    findWorstP[5,3]  2.0099224017300601e-01
    x[5,3]    findWorstP[5,4]  2.0099224017300601e-01
    x[5,3]    findWorstP[5,6]  2.0099224017300601e-01
    x[5,3]    findWorstP[6,5]  -1.5117983072644076e-01
    x[5,4]    allocateEach[4]  1
    x[5,4]    findWorstP[1,5]  -1.9445501494971459e-01
    x[5,4]    findWorstP[2,5]  -2.4314209933510159e-01
    x[5,4]    findWorstP[3,5]  -2.8211040748898675e-01
    x[5,4]    findWorstP[4,5]  -1.2153767107291327e-01
    x[5,4]    findWorstP[5,1]  1.6071746597125050e-01
    x[5,4]    findWorstP[5,2]  1.6071746597125050e-01
    x[5,4]    findWorstP[5,3]  1.6071746597125050e-01
    x[5,4]    findWorstP[5,4]  1.6071746597125050e-01
    x[5,4]    findWorstP[5,6]  1.6071746597125050e-01
    x[5,4]    findWorstP[6,5]  -1.8321021622753239e-01
    x[5,5]    allocateEach[5]  1
    x[5,5]    findWorstP[1,5]  -2.9181842892090243e-01
    x[5,5]    findWorstP[2,5]  -2.2849980016713298e-01
    x[5,5]    findWorstP[3,5]  -0.0405079845814978
    x[5,5]    findWorstP[4,5]  -4.2528843009949091e-01
    x[5,5]    findWorstP[5,1]  1.7903574608828393e-01
    x[5,5]    findWorstP[5,2]  1.7903574608828393e-01
    x[5,5]    findWorstP[5,3]  1.7903574608828393e-01
    x[5,5]    findWorstP[5,4]  1.7903574608828393e-01
    x[5,5]    findWorstP[5,6]  1.7903574608828393e-01
    x[5,5]    findWorstP[6,5]  -2.6524508777701350e-01
    x[6,1]    allocateEach[1]  1
    x[6,1]    findWorstP[1,6]  -1.3536287034520249e-02
    x[6,1]    findWorstP[2,6]  -0.0845474693892381
    x[6,1]    findWorstP[3,6]  -1.3147026431718062e-01
    x[6,1]    findWorstP[4,6]  -5.0259236769582889e-02
    x[6,1]    findWorstP[5,6]  -2.0552092609082814e-01
    x[6,1]    findWorstP[6,1]  1.2836079791847355e-01
    x[6,1]    findWorstP[6,2]  1.2836079791847355e-01
    x[6,1]    findWorstP[6,3]  1.2836079791847355e-01
    x[6,1]    findWorstP[6,4]  1.2836079791847355e-01
    x[6,1]    findWorstP[6,5]  1.2836079791847355e-01
    x[6,2]    allocateEach[2]  1
    x[6,2]    findWorstP[1,6]  -2.6963848871976082e-01
    x[6,2]    findWorstP[2,6]  -3.1035860916324531e-01
    x[6,2]    findWorstP[3,6]  -1.9906387665198239e-01
    x[6,2]    findWorstP[4,6]  -1.5236582745574292e-01
    x[6,2]    findWorstP[5,6]  -1.7740745452232543e-01
    x[6,2]    findWorstP[6,1]  1.8228309956036726e-01
    x[6,2]    findWorstP[6,2]  1.8228309956036726e-01
    x[6,2]    findWorstP[6,3]  1.8228309956036726e-01
    x[6,2]    findWorstP[6,4]  1.8228309956036726e-01
    x[6,2]    findWorstP[6,5]  1.8228309956036726e-01
    x[6,3]    allocateEach[3]  1
    x[6,3]    findWorstP[1,6]  -6.7463984778472416e-02
    x[6,3]    findWorstP[2,6]  -2.4452276278022021e-02
    x[6,3]    findWorstP[3,6]  -2.4359856828193832e-01
    x[6,3]    findWorstP[4,6]  -1.1042085104395349e-01
    x[6,3]    findWorstP[5,6]  -2.0099224017300601e-01
    x[6,3]    findWorstP[6,1]  1.5117983072644076e-01
    x[6,3]    findWorstP[6,2]  1.5117983072644076e-01
    x[6,3]    findWorstP[6,3]  1.5117983072644076e-01
    x[6,3]    findWorstP[6,4]  1.5117983072644076e-01
    x[6,3]    findWorstP[6,5]  1.5117983072644076e-01
    x[6,4]    allocateEach[4]  1
    x[6,4]    findWorstP[1,6]  -1.9445501494971459e-01
    x[6,4]    findWorstP[2,6]  -2.4314209933510159e-01
    x[6,4]    findWorstP[3,6]  -2.8211040748898675e-01
    x[6,4]    findWorstP[4,6]  -1.2153767107291327e-01
    x[6,4]    findWorstP[5,6]  -1.6071746597125050e-01
    x[6,4]    findWorstP[6,1]  1.8321021622753239e-01
    x[6,4]    findWorstP[6,2]  1.8321021622753239e-01
    x[6,4]    findWorstP[6,3]  1.8321021622753239e-01
    x[6,4]    findWorstP[6,4]  1.8321021622753239e-01
    x[6,4]    findWorstP[6,5]  1.8321021622753239e-01
    x[6,5]    allocateEach[5]  1
    x[6,5]    findWorstP[1,6]  -2.9181842892090243e-01
    x[6,5]    findWorstP[2,6]  -2.2849980016713298e-01
    x[6,5]    findWorstP[3,6]  -0.0405079845814978
    x[6,5]    findWorstP[4,6]  -4.2528843009949091e-01
    x[6,5]    findWorstP[5,6]  -1.7903574608828393e-01
    x[6,5]    findWorstP[6,1]  2.6524508777701350e-01
    x[6,5]    findWorstP[6,2]  2.6524508777701350e-01
    x[6,5]    findWorstP[6,3]  2.6524508777701350e-01
    x[6,5]    findWorstP[6,4]  2.6524508777701350e-01
    x[6,5]    findWorstP[6,5]  2.6524508777701350e-01
    MARKER    'MARKER'                 'INTEND'
RHS
    RHS1      allocateEach[1]  1
    RHS1      allocateEach[2]  1
    RHS1      allocateEach[3]  1
    RHS1      allocateEach[4]  1
    RHS1      allocateEach[5]  1
    RHS1      allocateAllCash  1
BOUNDS
 UP BND1      z         1
 MI BND1      cashProportion[1]
 UP BND1      cashProportion[1]  1
 MI BND1      cashProportion[2]
 UP BND1      cashProportion[2]  1
 MI BND1      cashProportion[3]
 UP BND1      cashProportion[3]  1
 MI BND1      cashProportion[4]
 UP BND1      cashProportion[4]  1
 MI BND1      cashProportion[5]
 UP BND1      cashProportion[5]  1
 MI BND1      cashProportion[6]
 UP BND1      cashProportion[6]  1
 BV BND1      x[1,1]  
 BV BND1      x[1,2]  
 BV BND1      x[1,3]  
 BV BND1      x[1,4]  
 BV BND1      x[1,5]  
 BV BND1      x[2,1]  
 BV BND1      x[2,2]  
 BV BND1      x[2,3]  
 BV BND1      x[2,4]  
 BV BND1      x[2,5]  
 BV BND1      x[3,1]  
 BV BND1      x[3,2]  
 BV BND1      x[3,3]  
 BV BND1      x[3,4]  
 BV BND1      x[3,5]  
 BV BND1      x[4,1]  
 BV BND1      x[4,2]  
 BV BND1      x[4,3]  
 BV BND1      x[4,4]  
 BV BND1      x[4,5]  
 BV BND1      x[5,1]  
 BV BND1      x[5,2]  
 BV BND1      x[5,3]  
 BV BND1      x[5,4]  
 BV BND1      x[5,5]  
 BV BND1      x[6,1]  
 BV BND1      x[6,2]  
 BV BND1      x[6,3]  
 BV BND1      x[6,4]  
 BV BND1      x[6,5]  
ENDATA
